StudentsNr = 10;
InstructorsNr = 60;
DaysNr = 2;
SlotsPerDay = 20;
AvailabilitySlotsLenght = 10;
RoomNr = 2;
ProgrammNr = 2;
DegreeNr = 1;
RolesNr = 0;
CoursesNr = 4;
InstructorsProgramm = [{1}, {2}, {1, 2}, {1, 2}, {2}, {2}, {2}, {1, 2}, {1, 2}, {2}, {2}, {2}, {1}, {2}, {1}, {2}, {1}, {1, 2}, {2}, {1}, {2}, {1, 2}, {1}, {1}, {1}, {1, 2}, {1}, {2}, {1}, {1, 2}, {2}, {1, 2}, {2}, {1}, {1}, {1, 2}, {1, 2}, {2}, {1}, {2}, {2}, {2}, {1}, {1, 2}, {1, 2}, {1, 2}, {2}, {2}, {1}, {1, 2}, {1}, {2}, {1}, {2}, {2}, {2}, {2}, {2}, {1, 2}, {1}];
InstructorRolesPerProgramm = array2d(1..ProgrammNr,{},[]);
InstructorsAvailability = [|0, 1, 1, 1, |1, 1, 1, 1, |1, 1, 1, 1, |0, 1, 1, 1, |0, 0, 0, 0, |1, 1, 1, 1, |0, 1, 0, 1, |0, 1, 1, 1, |1, 0, 0, 1, |0, 1, 0, 0, |0, 1, 1, 0, |1, 1, 1, 1, |1, 1, 0, 1, |1, 1, 0, 1, |1, 0, 0, 0, |1, 1, 1, 1, |1, 1, 1, 1, |0, 1, 1, 1, |1, 1, 1, 1, |0, 1, 1, 0, |0, 0, 1, 0, |0, 1, 0, 1, |1, 1, 1, 1, |1, 1, 1, 0, |1, 0, 0, 1, |0, 1, 1, 1, |1, 0, 1, 1, |0, 1, 1, 1, |0, 0, 0, 0, |0, 0, 1, 1, |1, 0, 1, 0, |0, 1, 1, 1, |0, 0, 1, 1, |0, 0, 1, 1, |1, 1, 1, 1, |0, 0, 1, 1, |0, 0, 0, 1, |1, 1, 1, 1, |1, 1, 1, 1, |1, 1, 1, 1, |1, 1, 1, 1, |1, 0, 1, 0, |1, 1, 1, 1, |1, 1, 1, 1, |1, 1, 1, 1, |1, 1, 1, 1, |1, 1, 1, 1, |0, 1, 0, 1, |0, 0, 1, 1, |0, 0, 1, 1, |0, 1, 1, 1, |0, 0, 1, 1, |1, 0, 1, 1, |1, 0, 1, 0, |0, 1, 1, 1, |0, 1, 1, 1, |0, 1, 0, 0, |0, 0, 0, 0, |1, 1, 0, 1, |0, 0, 1, 1|];
StudentsProgramm = [2, 1, 1, 2, 2, 2, 1, 2, 2, 2];
StudentsDegree = [1, 1, 1, 1, 1, 1, 1, 1, 1, 1];
StudentsSupervisorId = [41, 32, 30, 50, 28, 30, 4, 19, 28, 14];
StudentsCourseIds = [{3}, {1}, {4}, {3}, {3}, {1}, {1}, {3}, {1}, {4}];
StudentsAvailability = [|1, 1, 1, 1, |1, 1, 1, 1, |0, 0, 1, 1, |0, 0, 1, 0, |0, 1, 1, 1, |0, 0, 1, 1, |1, 0, 1, 1, |0, 1, 0, 0, |0, 0, 0, 1, |1, 1, 0, 1|];
TheoryticalMinCard = [1, 1, 2, 2, 1, 1, 2, 2, 2, 1];
CoursesInstructorIds = [{1, 3, 6, 9, 10, 11, 12, 13, 16, 17, 20, 21, 22, 27, 29, 30, 32, 33, 34, 39, 41, 42, 44, 45, 46, 47, 48, 50, 53, 54, 55, 58}, {1, 3, 4, 5, 10, 12, 13, 14, 16, 17, 19, 21, 22, 25, 27, 28, 30, 32, 35, 36, 39, 41, 42, 43, 44, 45, 46, 47, 50, 52, 53, 54, 56, 57, 58, 60}, {7, 8, 12, 17, 25, 26, 28, 38, 39, 41, 45, 46}, {1, 3, 6, 9, 12, 14, 15, 18, 19, 20, 21, 26, 31, 35, 38, 44, 45, 46, 49, 52, 53, 54, 57, 59}];
RolesDemands = [];
RolesContinuity = [];
ExamLen = [2, 2, 2, 2, 2, 2, 2, 2, 2, 2];
LunchTsMinLen = 0;
LunchStarts = [8..12, 26..34];
SupervisorAvailable = 0;
OptimalLunchLenght = [3, 0];
OptimalStartTs = [0, 0];
OptimalFinishTs = [1, 20];
MinimizeRooms = 200;
RolesSoftContinuity = array2d(1..2,{},[]);
SameDegreeInRoom = 20;
Mergeability = 1;
